(set-info :Origin "This instance was generated by: BanditFuzz-- an RL fuzzer for SMT solvers" )
(set-info :Author "Joe Scott, Fed Mora, Vijay Ganesh" )
(set-info :Contact "Joe Scott, joseph.scott@uwaterloo.ca")
(set-logic QF_BV)
(declare-const bool_0 Bool)
(declare-const bool_1 Bool)
(declare-const bool_2 Bool)
(declare-const bool_3 Bool)
(declare-const bool_4 Bool)
(declare-const bv_0 (_ BitVec 32))
(declare-const bv_1 (_ BitVec 32))
(declare-const bv_2 (_ BitVec 32))
(declare-const bv_3 (_ BitVec 32))
(declare-const bv_4 (_ BitVec 32))
(assert (bvsle (bvsmod (bvsmod bv_3 #x87d305fc ) (bvnand bv_3 #x5c88578c )) (bvor (bvsrem bv_3 bv_2) (bvand bv_0 bv_1))))
(assert (or (xor (xor true bool_4) (or bool_4 false)) (=> (bvsgt #x37b7e718  bv_3) (bvsge #xa4a2a435  bv_1))))
(assert (not (bvsge (bvmul #x348dcfd5  #x68eaa3e5 ) (bvshl #xa8eb5c00  #x080a7b97 ))))
(assert (bvugt (bvnor (bvsmod bv_3 bv_1) (bvxnor #x501722f5  #xa0b25523 )) (bvand (bvsdiv bv_2 bv_2) (bvsrem #x69862901  bv_0))))
(assert (bvsgt (bvsrem (bvsub #x19ec17ae  #x8dcfb9f9 ) (bvor bv_3 bv_3)) (bvlshr (bvsrem #xdf200396  bv_4) (bvand #x709b1250  bv_1))))
(check-sat)
(exit)
